LengthSchedulingHorizon=6548;
nAttributes=2;
SetupCosts=[[0, 0], [21, 21], [21, 21]];
SetupTimes=[[0, 0], [9, 9], [9, 9]];
nMachines=2;
MinCap=[0, 0];
MaxCap=[35, 19];

initState=[1, 2];
nShifts=5;
ShiftStartTimes = [[87, 1243, 1834, 4331, 4750], [625, 2028, 2307, 4155, 6480]];
ShiftEndTimes = [[662, 1693, 3985, 4573, 6262], [1747, 2120, 3592, 4926, 6500]];
nJobs=25;
EligibleMachines = [{2}, {1}, {1, 2}, {1}, {2}, {1}, {1}, {1, 2}, {2}, {2}, {2}, {1}, {1, 2}, {1}, {1}, {1}, {2}, {2}, {2}, {2}, {1, 2}, {1}, {2}, {1}, {1}];
EarliestStart=[580, 120, 35, 133, 148, 454, 434, 474, 536, 389, 348, 428, 100, 323, 240, 254, 49, 127, 367, 148, 456, 453, 103, 207, 330];
LatestEnd=[641, 188, 173, 187, 293, 541, 546, 477, 610, 446, 375, 532, 128, 327, 325, 362, 106, 164, 472, 237, 558, 539, 127, 316, 351];
MinTime=[50, 38, 76, 39, 84, 55, 65, 3, 39, 55, 16, 58, 26, 4, 64, 95, 31, 25, 82, 84, 79, 74, 18, 94, 13];
MaxTime=[100, 100, 100, 100, 100, 100, 100, 100, 100, 100, 100, 100, 100, 100, 100, 100, 100, 100, 100, 100, 100, 100, 100, 100, 100];
JobSize=[3, 2, 1, 3, 3, 4, 4, 1, 3, 4, 2, 1, 5, 4, 3, 3, 5, 3, 1, 5, 2, 3, 2, 2, 1];
Attribute=[2, 2, 2, 1, 1, 1, 1, 2, 1, 2, 1, 1, 2, 1, 2, 2, 2, 2, 2, 2, 2, 2, 2, 2, 2];

upper_bound_integer_objective=133875;
mult_factor_total_runtime=42;
mult_factor_finished_toolate=2142;
mult_factor_total_setuptimes=0;
mult_factor_total_setupcosts=51;
running_time_bound=1267;
min_duration=3;
max_duration=95;
max_setup_time=9;
max_setup_cost=21;
